c FILE: queen8_12.col
c Translated from Stanford GraphBase File: queen8_12.gb
c Stanford GraphBase ID: gunion(board(8,12,0,0,-1,0,0),board(8,12,0,0,-2,0,0),0,0)
p edge 96 2736
e 1 14
e 1 27
e 1 40
e 1 53
e 1 66
e 1 79
e 1 92
e 1 2
e 1 3
e 1 4
e 1 5
e 1 6
e 1 7
e 1 8
e 1 9
e 1 10
e 1 11
e 1 12
e 1 13
e 1 25
e 1 37
e 1 49
e 1 61
e 1 73
e 1 85
e 2 15
e 2 28
e 2 41
e 2 54
e 2 67
e 2 80
e 2 93
e 2 13
e 2 3
e 2 4
e 2 5
e 2 6
e 2 7
e 2 8
e 2 9
e 2 10
e 2 11
e 2 12
e 2 14
e 2 26
e 2 38
e 2 50
e 2 62
e 2 74
e 2 86
e 2 1
e 3 16
e 3 29
e 3 42
e 3 55
e 3 68
e 3 81
e 3 94
e 3 14
e 3 25
e 3 4
e 3 5
e 3 6
e 3 7
e 3 8
e 3 9
e 3 10
e 3 11
e 3 12
e 3 15
e 3 27
e 3 39
e 3 51
e 3 63
e 3 75
e 3 87
e 3 2
e 3 1
e 4 17
e 4 30
e 4 43
e 4 56
e 4 69
e 4 82
e 4 95
e 4 15
e 4 26
e 4 37
e 4 5
e 4 6
e 4 7
e 4 8
e 4 9
e 4 10
e 4 11
e 4 12
e 4 16
e 4 28
e 4 40
e 4 52
e 4 64
e 4 76
e 4 88
e 4 3
e 4 2
e 4 1
e 5 18
e 5 31
e 5 44
e 5 57
e 5 70
e 5 83
e 5 96
e 5 16
e 5 27
e 5 38
e 5 49
e 5 6
e 5 7
e 5 8
e 5 9
e 5 10
e 5 11
e 5 12
e 5 17
e 5 29
e 5 41
e 5 53
e 5 65
e 5 77
e 5 89
e 5 4
e 5 3
e 5 2
e 5 1
e 6 19
e 6 32
e 6 45
e 6 58
e 6 71
e 6 84
e 6 17
e 6 28
e 6 39
e 6 50
e 6 61
e 6 7
e 6 8
e 6 9
e 6 10
e 6 11
e 6 12
e 6 18
e 6 30
e 6 42
e 6 54
e 6 66
e 6 78
e 6 90
e 6 5
e 6 4
e 6 3
e 6 2
e 6 1
e 7 20
e 7 33
e 7 46
e 7 59
e 7 72
e 7 18
e 7 29
e 7 40
e 7 51
e 7 62
e 7 73
e 7 8
e 7 9
e 7 10
e 7 11
e 7 12
e 7 19
e 7 31
e 7 43
e 7 55
e 7 67
e 7 79
e 7 91
e 7 6
e 7 5
e 7 4
e 7 3
e 7 2
e 7 1
e 8 21
e 8 34
e 8 47
e 8 60
e 8 19
e 8 30
e 8 41
e 8 52
e 8 63
e 8 74
e 8 85
e 8 9
e 8 10
e 8 11
e 8 12
e 8 20
e 8 32
e 8 44
e 8 56
e 8 68
e 8 80
e 8 92
e 8 7
e 8 6
e 8 5
e 8 4
e 8 3
e 8 2
e 8 1
e 9 22
e 9 35
e 9 48
e 9 20
e 9 31
e 9 42
e 9 53
e 9 64
e 9 75
e 9 86
e 9 10
e 9 11
e 9 12
e 9 21
e 9 33
e 9 45
e 9 57
e 9 69
e 9 81
e 9 93
e 9 8
e 9 7
e 9 6
e 9 5
e 9 4
e 9 3
e 9 2
e 9 1
e 10 23
e 10 36
e 10 21
e 10 32
e 10 43
e 10 54
e 10 65
e 10 76
e 10 87
e 10 11
e 10 12
e 10 22
e 10 34
e 10 46
e 10 58
e 10 70
e 10 82
e 10 94
e 10 9
e 10 8
e 10 7
e 10 6
e 10 5
e 10 4
e 10 3
e 10 2
e 10 1
e 11 24
e 11 22
e 11 33
e 11 44
e 11 55
e 11 66
e 11 77
e 11 88
e 11 12
e 11 23
e 11 35
e 11 47
e 11 59
e 11 71
e 11 83
e 11 95
e 11 10
e 11 9
e 11 8
e 11 7
e 11 6
e 11 5
e 11 4
e 11 3
e 11 2
e 11 1
e 12 23
e 12 34
e 12 45
e 12 56
e 12 67
e 12 78
e 12 89
e 12 24
e 12 36
e 12 48
e 12 60
e 12 72
e 12 84
e 12 96
e 12 11
e 12 10
e 12 9
e 12 8
e 12 7
e 12 6
e 12 5
e 12 4
e 12 3
e 12 2
e 12 1
e 13 26
e 13 39
e 13 52
e 13 65
e 13 78
e 13 91
e 13 14
e 13 15
e 13 16
e 13 17
e 13 18
e 13 19
e 13 20
e 13 21
e 13 22
e 13 23
e 13 24
e 13 25
e 13 37
e 13 49
e 13 61
e 13 73
e 13 85
e 13 2
e 13 1
e 14 27
e 14 40
e 14 53
e 14 66
e 14 79
e 14 92
e 14 25
e 14 15
e 14 16
e 14 17
e 14 18
e 14 19
e 14 20
e 14 21
e 14 22
e 14 23
e 14 24
e 14 26
e 14 38
e 14 50
e 14 62
e 14 74
e 14 86
e 14 13
e 14 3
e 14 2
e 14 1
e 15 28
e 15 41
e 15 54
e 15 67
e 15 80
e 15 93
e 15 26
e 15 37
e 15 16
e 15 17
e 15 18
e 15 19
e 15 20
e 15 21
e 15 22
e 15 23
e 15 24
e 15 27
e 15 39
e 15 51
e 15 63
e 15 75
e 15 87
e 15 14
e 15 13
e 15 4
e 15 3
e 15 2
e 16 29
e 16 42
e 16 55
e 16 68
e 16 81
e 16 94
e 16 27
e 16 38
e 16 49
e 16 17
e 16 18
e 16 19
e 16 20
e 16 21
e 16 22
e 16 23
e 16 24
e 16 28
e 16 40
e 16 52
e 16 64
e 16 76
e 16 88
e 16 15
e 16 14
e 16 13
e 16 5
e 16 4
e 16 3
e 17 30
e 17 43
e 17 56
e 17 69
e 17 82
e 17 95
e 17 28
e 17 39
e 17 50
e 17 61
e 17 18
e 17 19
e 17 20
e 17 21
e 17 22
e 17 23
e 17 24
e 17 29
e 17 41
e 17 53
e 17 65
e 17 77
e 17 89
e 17 16
e 17 15
e 17 14
e 17 13
e 17 6
e 17 5
e 17 4
e 18 31
e 18 44
e 18 57
e 18 70
e 18 83
e 18 96
e 18 29
e 18 40
e 18 51
e 18 62
e 18 73
e 18 19
e 18 20
e 18 21
e 18 22
e 18 23
e 18 24
e 18 30
e 18 42
e 18 54
e 18 66
e 18 78
e 18 90
e 18 17
e 18 16
e 18 15
e 18 14
e 18 13
e 18 7
e 18 6
e 18 5
e 19 32
e 19 45
e 19 58
e 19 71
e 19 84
e 19 30
e 19 41
e 19 52
e 19 63
e 19 74
e 19 85
e 19 20
e 19 21
e 19 22
e 19 23
e 19 24
e 19 31
e 19 43
e 19 55
e 19 67
e 19 79
e 19 91
e 19 18
e 19 17
e 19 16
e 19 15
e 19 14
e 19 13
e 19 8
e 19 7
e 19 6
e 20 33
e 20 46
e 20 59
e 20 72
e 20 31
e 20 42
e 20 53
e 20 64
e 20 75
e 20 86
e 20 21
e 20 22
e 20 23
e 20 24
e 20 32
e 20 44
e 20 56
e 20 68
e 20 80
e 20 92
e 20 19
e 20 18
e 20 17
e 20 16
e 20 15
e 20 14
e 20 13
e 20 9
e 20 8
e 20 7
e 21 34
e 21 47
e 21 60
e 21 32
e 21 43
e 21 54
e 21 65
e 21 76
e 21 87
e 21 22
e 21 23
e 21 24
e 21 33
e 21 45
e 21 57
e 21 69
e 21 81
e 21 93
e 21 20
e 21 19
e 21 18
e 21 17
e 21 16
e 21 15
e 21 14
e 21 13
e 21 10
e 21 9
e 21 8
e 22 35
e 22 48
e 22 33
e 22 44
e 22 55
e 22 66
e 22 77
e 22 88
e 22 23
e 22 24
e 22 34
e 22 46
e 22 58
e 22 70
e 22 82
e 22 94
e 22 21
e 22 20
e 22 19
e 22 18
e 22 17
e 22 16
e 22 15
e 22 14
e 22 13
e 22 11
e 22 10
e 22 9
e 23 36
e 23 34
e 23 45
e 23 56
e 23 67
e 23 78
e 23 89
e 23 24
e 23 35
e 23 47
e 23 59
e 23 71
e 23 83
e 23 95
e 23 22
e 23 21
e 23 20
e 23 19
e 23 18
e 23 17
e 23 16
e 23 15
e 23 14
e 23 13
e 23 12
e 23 11
e 23 10
e 24 35
e 24 46
e 24 57
e 24 68
e 24 79
e 24 90
e 24 36
e 24 48
e 24 60
e 24 72
e 24 84
e 24 96
e 24 23
e 24 22
e 24 21
e 24 20
e 24 19
e 24 18
e 24 17
e 24 16
e 24 15
e 24 14
e 24 13
e 24 12
e 24 11
e 25 38
e 25 51
e 25 64
e 25 77
e 25 90
e 25 26
e 25 27
e 25 28
e 25 29
e 25 30
e 25 31
e 25 32
e 25 33
e 25 34
e 25 35
e 25 36
e 25 37
e 25 49
e 25 61
e 25 73
e 25 85
e 25 14
e 25 13
e 25 3
e 25 1
e 26 39
e 26 52
e 26 65
e 26 78
e 26 91
e 26 37
e 26 27
e 26 28
e 26 29
e 26 30
e 26 31
e 26 32
e 26 33
e 26 34
e 26 35
e 26 36
e 26 38
e 26 50
e 26 62
e 26 74
e 26 86
e 26 25
e 26 15
e 26 14
e 26 13
e 26 4
e 26 2
e 27 40
e 27 53
e 27 66
e 27 79
e 27 92
e 27 38
e 27 49
e 27 28
e 27 29
e 27 30
e 27 31
e 27 32
e 27 33
e 27 34
e 27 35
e 27 36
e 27 39
e 27 51
e 27 63
e 27 75
e 27 87
e 27 26
e 27 25
e 27 16
e 27 15
e 27 14
e 27 5
e 27 3
e 27 1
e 28 41
e 28 54
e 28 67
e 28 80
e 28 93
e 28 39
e 28 50
e 28 61
e 28 29
e 28 30
e 28 31
e 28 32
e 28 33
e 28 34
e 28 35
e 28 36
e 28 40
e 28 52
e 28 64
e 28 76
e 28 88
e 28 27
e 28 26
e 28 25
e 28 17
e 28 16
e 28 15
e 28 6
e 28 4
e 28 2
e 29 42
e 29 55
e 29 68
e 29 81
e 29 94
e 29 40
e 29 51
e 29 62
e 29 73
e 29 30
e 29 31
e 29 32
e 29 33
e 29 34
e 29 35
e 29 36
e 29 41
e 29 53
e 29 65
e 29 77
e 29 89
e 29 28
e 29 27
e 29 26
e 29 25
e 29 18
e 29 17
e 29 16
e 29 7
e 29 5
e 29 3
e 30 43
e 30 56
e 30 69
e 30 82
e 30 95
e 30 41
e 30 52
e 30 63
e 30 74
e 30 85
e 30 31
e 30 32
e 30 33
e 30 34
e 30 35
e 30 36
e 30 42
e 30 54
e 30 66
e 30 78
e 30 90
e 30 29
e 30 28
e 30 27
e 30 26
e 30 25
e 30 19
e 30 18
e 30 17
e 30 8
e 30 6
e 30 4
e 31 44
e 31 57
e 31 70
e 31 83
e 31 96
e 31 42
e 31 53
e 31 64
e 31 75
e 31 86
e 31 32
e 31 33
e 31 34
e 31 35
e 31 36
e 31 43
e 31 55
e 31 67
e 31 79
e 31 91
e 31 30
e 31 29
e 31 28
e 31 27
e 31 26
e 31 25
e 31 20
e 31 19
e 31 18
e 31 9
e 31 7
e 31 5
e 32 45
e 32 58
e 32 71
e 32 84
e 32 43
e 32 54
e 32 65
e 32 76
e 32 87
e 32 33
e 32 34
e 32 35
e 32 36
e 32 44
e 32 56
e 32 68
e 32 80
e 32 92
e 32 31
e 32 30
e 32 29
e 32 28
e 32 27
e 32 26
e 32 25
e 32 21
e 32 20
e 32 19
e 32 10
e 32 8
e 32 6
e 33 46
e 33 59
e 33 72
e 33 44
e 33 55
e 33 66
e 33 77
e 33 88
e 33 34
e 33 35
e 33 36
e 33 45
e 33 57
e 33 69
e 33 81
e 33 93
e 33 32
e 33 31
e 33 30
e 33 29
e 33 28
e 33 27
e 33 26
e 33 25
e 33 22
e 33 21
e 33 20
e 33 11
e 33 9
e 33 7
e 34 47
e 34 60
e 34 45
e 34 56
e 34 67
e 34 78
e 34 89
e 34 35
e 34 36
e 34 46
e 34 58
e 34 70
e 34 82
e 34 94
e 34 33
e 34 32
e 34 31
e 34 30
e 34 29
e 34 28
e 34 27
e 34 26
e 34 25
e 34 23
e 34 22
e 34 21
e 34 12
e 34 10
e 34 8
e 35 48
e 35 46
e 35 57
e 35 68
e 35 79
e 35 90
e 35 36
e 35 47
e 35 59
e 35 71
e 35 83
e 35 95
e 35 34
e 35 33
e 35 32
e 35 31
e 35 30
e 35 29
e 35 28
e 35 27
e 35 26
e 35 25
e 35 24
e 35 23
e 35 22
e 35 11
e 35 9
e 36 47
e 36 58
e 36 69
e 36 80
e 36 91
e 36 48
e 36 60
e 36 72
e 36 84
e 36 96
e 36 35
e 36 34
e 36 33
e 36 32
e 36 31
e 36 30
e 36 29
e 36 28
e 36 27
e 36 26
e 36 25
e 36 24
e 36 23
e 36 12
e 36 10
e 37 50
e 37 63
e 37 76
e 37 89
e 37 38
e 37 39
e 37 40
e 37 41
e 37 42
e 37 43
e 37 44
e 37 45
e 37 46
e 37 47
e 37 48
e 37 49
e 37 61
e 37 73
e 37 85
e 37 26
e 37 25
e 37 15
e 37 13
e 37 4
e 37 1
e 38 51
e 38 64
e 38 77
e 38 90
e 38 49
e 38 39
e 38 40
e 38 41
e 38 42
e 38 43
e 38 44
e 38 45
e 38 46
e 38 47
e 38 48
e 38 50
e 38 62
e 38 74
e 38 86
e 38 37
e 38 27
e 38 26
e 38 25
e 38 16
e 38 14
e 38 5
e 38 2
e 39 52
e 39 65
e 39 78
e 39 91
e 39 50
e 39 61
e 39 40
e 39 41
e 39 42
e 39 43
e 39 44
e 39 45
e 39 46
e 39 47
e 39 48
e 39 51
e 39 63
e 39 75
e 39 87
e 39 38
e 39 37
e 39 28
e 39 27
e 39 26
e 39 17
e 39 15
e 39 13
e 39 6
e 39 3
e 40 53
e 40 66
e 40 79
e 40 92
e 40 51
e 40 62
e 40 73
e 40 41
e 40 42
e 40 43
e 40 44
e 40 45
e 40 46
e 40 47
e 40 48
e 40 52
e 40 64
e 40 76
e 40 88
e 40 39
e 40 38
e 40 37
e 40 29
e 40 28
e 40 27
e 40 18
e 40 16
e 40 14
e 40 7
e 40 4
e 40 1
e 41 54
e 41 67
e 41 80
e 41 93
e 41 52
e 41 63
e 41 74
e 41 85
e 41 42
e 41 43
e 41 44
e 41 45
e 41 46
e 41 47
e 41 48
e 41 53
e 41 65
e 41 77
e 41 89
e 41 40
e 41 39
e 41 38
e 41 37
e 41 30
e 41 29
e 41 28
e 41 19
e 41 17
e 41 15
e 41 8
e 41 5
e 41 2
e 42 55
e 42 68
e 42 81
e 42 94
e 42 53
e 42 64
e 42 75
e 42 86
e 42 43
e 42 44
e 42 45
e 42 46
e 42 47
e 42 48
e 42 54
e 42 66
e 42 78
e 42 90
e 42 41
e 42 40
e 42 39
e 42 38
e 42 37
e 42 31
e 42 30
e 42 29
e 42 20
e 42 18
e 42 16
e 42 9
e 42 6
e 42 3
e 43 56
e 43 69
e 43 82
e 43 95
e 43 54
e 43 65
e 43 76
e 43 87
e 43 44
e 43 45
e 43 46
e 43 47
e 43 48
e 43 55
e 43 67
e 43 79
e 43 91
e 43 42
e 43 41
e 43 40
e 43 39
e 43 38
e 43 37
e 43 32
e 43 31
e 43 30
e 43 21
e 43 19
e 43 17
e 43 10
e 43 7
e 43 4
e 44 57
e 44 70
e 44 83
e 44 96
e 44 55
e 44 66
e 44 77
e 44 88
e 44 45
e 44 46
e 44 47
e 44 48
e 44 56
e 44 68
e 44 80
e 44 92
e 44 43
e 44 42
e 44 41
e 44 40
e 44 39
e 44 38
e 44 37
e 44 33
e 44 32
e 44 31
e 44 22
e 44 20
e 44 18
e 44 11
e 44 8
e 44 5
e 45 58
e 45 71
e 45 84
e 45 56
e 45 67
e 45 78
e 45 89
e 45 46
e 45 47
e 45 48
e 45 57
e 45 69
e 45 81
e 45 93
e 45 44
e 45 43
e 45 42
e 45 41
e 45 40
e 45 39
e 45 38
e 45 37
e 45 34
e 45 33
e 45 32
e 45 23
e 45 21
e 45 19
e 45 12
e 45 9
e 45 6
e 46 59
e 46 72
e 46 57
e 46 68
e 46 79
e 46 90
e 46 47
e 46 48
e 46 58
e 46 70
e 46 82
e 46 94
e 46 45
e 46 44
e 46 43
e 46 42
e 46 41
e 46 40
e 46 39
e 46 38
e 46 37
e 46 35
e 46 34
e 46 33
e 46 24
e 46 22
e 46 20
e 46 10
e 46 7
e 47 60
e 47 58
e 47 69
e 47 80
e 47 91
e 47 48
e 47 59
e 47 71
e 47 83
e 47 95
e 47 46
e 47 45
e 47 44
e 47 43
e 47 42
e 47 41
e 47 40
e 47 39
e 47 38
e 47 37
e 47 36
e 47 35
e 47 34
e 47 23
e 47 21
e 47 11
e 47 8
e 48 59
e 48 70
e 48 81
e 48 92
e 48 60
e 48 72
e 48 84
e 48 96
e 48 47
e 48 46
e 48 45
e 48 44
e 48 43
e 48 42
e 48 41
e 48 40
e 48 39
e 48 38
e 48 37
e 48 36
e 48 35
e 48 24
e 48 22
e 48 12
e 48 9
e 49 62
e 49 75
e 49 88
e 49 50
e 49 51
e 49 52
e 49 53
e 49 54
e 49 55
e 49 56
e 49 57
e 49 58
e 49 59
e 49 60
e 49 61
e 49 73
e 49 85
e 49 38
e 49 37
e 49 27
e 49 25
e 49 16
e 49 13
e 49 5
e 49 1
e 50 63
e 50 76
e 50 89
e 50 61
e 50 51
e 50 52
e 50 53
e 50 54
e 50 55
e 50 56
e 50 57
e 50 58
e 50 59
e 50 60
e 50 62
e 50 74
e 50 86
e 50 49
e 50 39
e 50 38
e 50 37
e 50 28
e 50 26
e 50 17
e 50 14
e 50 6
e 50 2
e 51 64
e 51 77
e 51 90
e 51 62
e 51 73
e 51 52
e 51 53
e 51 54
e 51 55
e 51 56
e 51 57
e 51 58
e 51 59
e 51 60
e 51 63
e 51 75
e 51 87
e 51 50
e 51 49
e 51 40
e 51 39
e 51 38
e 51 29
e 51 27
e 51 25
e 51 18
e 51 15
e 51 7
e 51 3
e 52 65
e 52 78
e 52 91
e 52 63
e 52 74
e 52 85
e 52 53
e 52 54
e 52 55
e 52 56
e 52 57
e 52 58
e 52 59
e 52 60
e 52 64
e 52 76
e 52 88
e 52 51
e 52 50
e 52 49
e 52 41
e 52 40
e 52 39
e 52 30
e 52 28
e 52 26
e 52 19
e 52 16
e 52 13
e 52 8
e 52 4
e 53 66
e 53 79
e 53 92
e 53 64
e 53 75
e 53 86
e 53 54
e 53 55
e 53 56
e 53 57
e 53 58
e 53 59
e 53 60
e 53 65
e 53 77
e 53 89
e 53 52
e 53 51
e 53 50
e 53 49
e 53 42
e 53 41
e 53 40
e 53 31
e 53 29
e 53 27
e 53 20
e 53 17
e 53 14
e 53 9
e 53 5
e 53 1
e 54 67
e 54 80
e 54 93
e 54 65
e 54 76
e 54 87
e 54 55
e 54 56
e 54 57
e 54 58
e 54 59
e 54 60
e 54 66
e 54 78
e 54 90
e 54 53
e 54 52
e 54 51
e 54 50
e 54 49
e 54 43
e 54 42
e 54 41
e 54 32
e 54 30
e 54 28
e 54 21
e 54 18
e 54 15
e 54 10
e 54 6
e 54 2
e 55 68
e 55 81
e 55 94
e 55 66
e 55 77
e 55 88
e 55 56
e 55 57
e 55 58
e 55 59
e 55 60
e 55 67
e 55 79
e 55 91
e 55 54
e 55 53
e 55 52
e 55 51
e 55 50
e 55 49
e 55 44
e 55 43
e 55 42
e 55 33
e 55 31
e 55 29
e 55 22
e 55 19
e 55 16
e 55 11
e 55 7
e 55 3
e 56 69
e 56 82
e 56 95
e 56 67
e 56 78
e 56 89
e 56 57
e 56 58
e 56 59
e 56 60
e 56 68
e 56 80
e 56 92
e 56 55
e 56 54
e 56 53
e 56 52
e 56 51
e 56 50
e 56 49
e 56 45
e 56 44
e 56 43
e 56 34
e 56 32
e 56 30
e 56 23
e 56 20
e 56 17
e 56 12
e 56 8
e 56 4
e 57 70
e 57 83
e 57 96
e 57 68
e 57 79
e 57 90
e 57 58
e 57 59
e 57 60
e 57 69
e 57 81
e 57 93
e 57 56
e 57 55
e 57 54
e 57 53
e 57 52
e 57 51
e 57 50
e 57 49
e 57 46
e 57 45
e 57 44
e 57 35
e 57 33
e 57 31
e 57 24
e 57 21
e 57 18
e 57 9
e 57 5
e 58 71
e 58 84
e 58 69
e 58 80
e 58 91
e 58 59
e 58 60
e 58 70
e 58 82
e 58 94
e 58 57
e 58 56
e 58 55
e 58 54
e 58 53
e 58 52
e 58 51
e 58 50
e 58 49
e 58 47
e 58 46
e 58 45
e 58 36
e 58 34
e 58 32
e 58 22
e 58 19
e 58 10
e 58 6
e 59 72
e 59 70
e 59 81
e 59 92
e 59 60
e 59 71
e 59 83
e 59 95
e 59 58
e 59 57
e 59 56
e 59 55
e 59 54
e 59 53
e 59 52
e 59 51
e 59 50
e 59 49
e 59 48
e 59 47
e 59 46
e 59 35
e 59 33
e 59 23
e 59 20
e 59 11
e 59 7
e 60 71
e 60 82
e 60 93
e 60 72
e 60 84
e 60 96
e 60 59
e 60 58
e 60 57
e 60 56
e 60 55
e 60 54
e 60 53
e 60 52
e 60 51
e 60 50
e 60 49
e 60 48
e 60 47
e 60 36
e 60 34
e 60 24
e 60 21
e 60 12
e 60 8
e 61 74
e 61 87
e 61 62
e 61 63
e 61 64
e 61 65
e 61 66
e 61 67
e 61 68
e 61 69
e 61 70
e 61 71
e 61 72
e 61 73
e 61 85
e 61 50
e 61 49
e 61 39
e 61 37
e 61 28
e 61 25
e 61 17
e 61 13
e 61 6
e 61 1
e 62 75
e 62 88
e 62 73
e 62 63
e 62 64
e 62 65
e 62 66
e 62 67
e 62 68
e 62 69
e 62 70
e 62 71
e 62 72
e 62 74
e 62 86
e 62 61
e 62 51
e 62 50
e 62 49
e 62 40
e 62 38
e 62 29
e 62 26
e 62 18
e 62 14
e 62 7
e 62 2
e 63 76
e 63 89
e 63 74
e 63 85
e 63 64
e 63 65
e 63 66
e 63 67
e 63 68
e 63 69
e 63 70
e 63 71
e 63 72
e 63 75
e 63 87
e 63 62
e 63 61
e 63 52
e 63 51
e 63 50
e 63 41
e 63 39
e 63 37
e 63 30
e 63 27
e 63 19
e 63 15
e 63 8
e 63 3
e 64 77
e 64 90
e 64 75
e 64 86
e 64 65
e 64 66
e 64 67
e 64 68
e 64 69
e 64 70
e 64 71
e 64 72
e 64 76
e 64 88
e 64 63
e 64 62
e 64 61
e 64 53
e 64 52
e 64 51
e 64 42
e 64 40
e 64 38
e 64 31
e 64 28
e 64 25
e 64 20
e 64 16
e 64 9
e 64 4
e 65 78
e 65 91
e 65 76
e 65 87
e 65 66
e 65 67
e 65 68
e 65 69
e 65 70
e 65 71
e 65 72
e 65 77
e 65 89
e 65 64
e 65 63
e 65 62
e 65 61
e 65 54
e 65 53
e 65 52
e 65 43
e 65 41
e 65 39
e 65 32
e 65 29
e 65 26
e 65 21
e 65 17
e 65 13
e 65 10
e 65 5
e 66 79
e 66 92
e 66 77
e 66 88
e 66 67
e 66 68
e 66 69
e 66 70
e 66 71
e 66 72
e 66 78
e 66 90
e 66 65
e 66 64
e 66 63
e 66 62
e 66 61
e 66 55
e 66 54
e 66 53
e 66 44
e 66 42
e 66 40
e 66 33
e 66 30
e 66 27
e 66 22
e 66 18
e 66 14
e 66 11
e 66 6
e 66 1
e 67 80
e 67 93
e 67 78
e 67 89
e 67 68
e 67 69
e 67 70
e 67 71
e 67 72
e 67 79
e 67 91
e 67 66
e 67 65
e 67 64
e 67 63
e 67 62
e 67 61
e 67 56
e 67 55
e 67 54
e 67 45
e 67 43
e 67 41
e 67 34
e 67 31
e 67 28
e 67 23
e 67 19
e 67 15
e 67 12
e 67 7
e 67 2
e 68 81
e 68 94
e 68 79
e 68 90
e 68 69
e 68 70
e 68 71
e 68 72
e 68 80
e 68 92
e 68 67
e 68 66
e 68 65
e 68 64
e 68 63
e 68 62
e 68 61
e 68 57
e 68 56
e 68 55
e 68 46
e 68 44
e 68 42
e 68 35
e 68 32
e 68 29
e 68 24
e 68 20
e 68 16
e 68 8
e 68 3
e 69 82
e 69 95
e 69 80
e 69 91
e 69 70
e 69 71
e 69 72
e 69 81
e 69 93
e 69 68
e 69 67
e 69 66
e 69 65
e 69 64
e 69 63
e 69 62
e 69 61
e 69 58
e 69 57
e 69 56
e 69 47
e 69 45
e 69 43
e 69 36
e 69 33
e 69 30
e 69 21
e 69 17
e 69 9
e 69 4
e 70 83
e 70 96
e 70 81
e 70 92
e 70 71
e 70 72
e 70 82
e 70 94
e 70 69
e 70 68
e 70 67
e 70 66
e 70 65
e 70 64
e 70 63
e 70 62
e 70 61
e 70 59
e 70 58
e 70 57
e 70 48
e 70 46
e 70 44
e 70 34
e 70 31
e 70 22
e 70 18
e 70 10
e 70 5
e 71 84
e 71 82
e 71 93
e 71 72
e 71 83
e 71 95
e 71 70
e 71 69
e 71 68
e 71 67
e 71 66
e 71 65
e 71 64
e 71 63
e 71 62
e 71 61
e 71 60
e 71 59
e 71 58
e 71 47
e 71 45
e 71 35
e 71 32
e 71 23
e 71 19
e 71 11
e 71 6
e 72 83
e 72 94
e 72 84
e 72 96
e 72 71
e 72 70
e 72 69
e 72 68
e 72 67
e 72 66
e 72 65
e 72 64
e 72 63
e 72 62
e 72 61
e 72 60
e 72 59
e 72 48
e 72 46
e 72 36
e 72 33
e 72 24
e 72 20
e 72 12
e 72 7
e 73 86
e 73 74
e 73 75
e 73 76
e 73 77
e 73 78
e 73 79
e 73 80
e 73 81
e 73 82
e 73 83
e 73 84
e 73 85
e 73 62
e 73 61
e 73 51
e 73 49
e 73 40
e 73 37
e 73 29
e 73 25
e 73 18
e 73 13
e 73 7
e 73 1
e 74 87
e 74 85
e 74 75
e 74 76
e 74 77
e 74 78
e 74 79
e 74 80
e 74 81
e 74 82
e 74 83
e 74 84
e 74 86
e 74 73
e 74 63
e 74 62
e 74 61
e 74 52
e 74 50
e 74 41
e 74 38
e 74 30
e 74 26
e 74 19
e 74 14
e 74 8
e 74 2
e 75 88
e 75 86
e 75 76
e 75 77
e 75 78
e 75 79
e 75 80
e 75 81
e 75 82
e 75 83
e 75 84
e 75 87
e 75 74
e 75 73
e 75 64
e 75 63
e 75 62
e 75 53
e 75 51
e 75 49
e 75 42
e 75 39
e 75 31
e 75 27
e 75 20
e 75 15
e 75 9
e 75 3
e 76 89
e 76 87
e 76 77
e 76 78
e 76 79
e 76 80
e 76 81
e 76 82
e 76 83
e 76 84
e 76 88
e 76 75
e 76 74
e 76 73
e 76 65
e 76 64
e 76 63
e 76 54
e 76 52
e 76 50
e 76 43
e 76 40
e 76 37
e 76 32
e 76 28
e 76 21
e 76 16
e 76 10
e 76 4
e 77 90
e 77 88
e 77 78
e 77 79
e 77 80
e 77 81
e 77 82
e 77 83
e 77 84
e 77 89
e 77 76
e 77 75
e 77 74
e 77 73
e 77 66
e 77 65
e 77 64
e 77 55
e 77 53
e 77 51
e 77 44
e 77 41
e 77 38
e 77 33
e 77 29
e 77 25
e 77 22
e 77 17
e 77 11
e 77 5
e 78 91
e 78 89
e 78 79
e 78 80
e 78 81
e 78 82
e 78 83
e 78 84
e 78 90
e 78 77
e 78 76
e 78 75
e 78 74
e 78 73
e 78 67
e 78 66
e 78 65
e 78 56
e 78 54
e 78 52
e 78 45
e 78 42
e 78 39
e 78 34
e 78 30
e 78 26
e 78 23
e 78 18
e 78 13
e 78 12
e 78 6
e 79 92
e 79 90
e 79 80
e 79 81
e 79 82
e 79 83
e 79 84
e 79 91
e 79 78
e 79 77
e 79 76
e 79 75
e 79 74
e 79 73
e 79 68
e 79 67
e 79 66
e 79 57
e 79 55
e 79 53
e 79 46
e 79 43
e 79 40
e 79 35
e 79 31
e 79 27
e 79 24
e 79 19
e 79 14
e 79 7
e 79 1
e 80 93
e 80 91
e 80 81
e 80 82
e 80 83
e 80 84
e 80 92
e 80 79
e 80 78
e 80 77
e 80 76
e 80 75
e 80 74
e 80 73
e 80 69
e 80 68
e 80 67
e 80 58
e 80 56
e 80 54
e 80 47
e 80 44
e 80 41
e 80 36
e 80 32
e 80 28
e 80 20
e 80 15
e 80 8
e 80 2
e 81 94
e 81 92
e 81 82
e 81 83
e 81 84
e 81 93
e 81 80
e 81 79
e 81 78
e 81 77
e 81 76
e 81 75
e 81 74
e 81 73
e 81 70
e 81 69
e 81 68
e 81 59
e 81 57
e 81 55
e 81 48
e 81 45
e 81 42
e 81 33
e 81 29
e 81 21
e 81 16
e 81 9
e 81 3
e 82 95
e 82 93
e 82 83
e 82 84
e 82 94
e 82 81
e 82 80
e 82 79
e 82 78
e 82 77
e 82 76
e 82 75
e 82 74
e 82 73
e 82 71
e 82 70
e 82 69
e 82 60
e 82 58
e 82 56
e 82 46
e 82 43
e 82 34
e 82 30
e 82 22
e 82 17
e 82 10
e 82 4
e 83 96
e 83 94
e 83 84
e 83 95
e 83 82
e 83 81
e 83 80
e 83 79
e 83 78
e 83 77
e 83 76
e 83 75
e 83 74
e 83 73
e 83 72
e 83 71
e 83 70
e 83 59
e 83 57
e 83 47
e 83 44
e 83 35
e 83 31
e 83 23
e 83 18
e 83 11
e 83 5
e 84 95
e 84 96
e 84 83
e 84 82
e 84 81
e 84 80
e 84 79
e 84 78
e 84 77
e 84 76
e 84 75
e 84 74
e 84 73
e 84 72
e 84 71
e 84 60
e 84 58
e 84 48
e 84 45
e 84 36
e 84 32
e 84 24
e 84 19
e 84 12
e 84 6
e 85 86
e 85 87
e 85 88
e 85 89
e 85 90
e 85 91
e 85 92
e 85 93
e 85 94
e 85 95
e 85 96
e 85 74
e 85 73
e 85 63
e 85 61
e 85 52
e 85 49
e 85 41
e 85 37
e 85 30
e 85 25
e 85 19
e 85 13
e 85 8
e 85 1
e 86 87
e 86 88
e 86 89
e 86 90
e 86 91
e 86 92
e 86 93
e 86 94
e 86 95
e 86 96
e 86 85
e 86 75
e 86 74
e 86 73
e 86 64
e 86 62
e 86 53
e 86 50
e 86 42
e 86 38
e 86 31
e 86 26
e 86 20
e 86 14
e 86 9
e 86 2
e 87 88
e 87 89
e 87 90
e 87 91
e 87 92
e 87 93
e 87 94
e 87 95
e 87 96
e 87 86
e 87 85
e 87 76
e 87 75
e 87 74
e 87 65
e 87 63
e 87 61
e 87 54
e 87 51
e 87 43
e 87 39
e 87 32
e 87 27
e 87 21
e 87 15
e 87 10
e 87 3
e 88 89
e 88 90
e 88 91
e 88 92
e 88 93
e 88 94
e 88 95
e 88 96
e 88 87
e 88 86
e 88 85
e 88 77
e 88 76
e 88 75
e 88 66
e 88 64
e 88 62
e 88 55
e 88 52
e 88 49
e 88 44
e 88 40
e 88 33
e 88 28
e 88 22
e 88 16
e 88 11
e 88 4
e 89 90
e 89 91
e 89 92
e 89 93
e 89 94
e 89 95
e 89 96
e 89 88
e 89 87
e 89 86
e 89 85
e 89 78
e 89 77
e 89 76
e 89 67
e 89 65
e 89 63
e 89 56
e 89 53
e 89 50
e 89 45
e 89 41
e 89 37
e 89 34
e 89 29
e 89 23
e 89 17
e 89 12
e 89 5
e 90 91
e 90 92
e 90 93
e 90 94
e 90 95
e 90 96
e 90 89
e 90 88
e 90 87
e 90 86
e 90 85
e 90 79
e 90 78
e 90 77
e 90 68
e 90 66
e 90 64
e 90 57
e 90 54
e 90 51
e 90 46
e 90 42
e 90 38
e 90 35
e 90 30
e 90 25
e 90 24
e 90 18
e 90 6
e 91 92
e 91 93
e 91 94
e 91 95
e 91 96
e 91 90
e 91 89
e 91 88
e 91 87
e 91 86
e 91 85
e 91 80
e 91 79
e 91 78
e 91 69
e 91 67
e 91 65
e 91 58
e 91 55
e 91 52
e 91 47
e 91 43
e 91 39
e 91 36
e 91 31
e 91 26
e 91 19
e 91 13
e 91 7
e 92 93
e 92 94
e 92 95
e 92 96
e 92 91
e 92 90
e 92 89
e 92 88
e 92 87
e 92 86
e 92 85
e 92 81
e 92 80
e 92 79
e 92 70
e 92 68
e 92 66
e 92 59
e 92 56
e 92 53
e 92 48
e 92 44
e 92 40
e 92 32
e 92 27
e 92 20
e 92 14
e 92 8
e 92 1
e 93 94
e 93 95
e 93 96
e 93 92
e 93 91
e 93 90
e 93 89
e 93 88
e 93 87
e 93 86
e 93 85
e 93 82
e 93 81
e 93 80
e 93 71
e 93 69
e 93 67
e 93 60
e 93 57
e 93 54
e 93 45
e 93 41
e 93 33
e 93 28
e 93 21
e 93 15
e 93 9
e 93 2
e 94 95
e 94 96
e 94 93
e 94 92
e 94 91
e 94 90
e 94 89
e 94 88
e 94 87
e 94 86
e 94 85
e 94 83
e 94 82
e 94 81
e 94 72
e 94 70
e 94 68
e 94 58
e 94 55
e 94 46
e 94 42
e 94 34
e 94 29
e 94 22
e 94 16
e 94 10
e 94 3
e 95 96
e 95 94
e 95 93
e 95 92
e 95 91
e 95 90
e 95 89
e 95 88
e 95 87
e 95 86
e 95 85
e 95 84
e 95 83
e 95 82
e 95 71
e 95 69
e 95 59
e 95 56
e 95 47
e 95 43
e 95 35
e 95 30
e 95 23
e 95 17
e 95 11
e 95 4
e 96 95
e 96 94
e 96 93
e 96 92
e 96 91
e 96 90
e 96 89
e 96 88
e 96 87
e 96 86
e 96 85
e 96 84
e 96 83
e 96 72
e 96 70
e 96 60
e 96 57
e 96 48
e 96 44
e 96 36
e 96 31
e 96 24
e 96 18
e 96 12
e 96 5
